This is Ipopt version 3.12.3, running with linear solver mumps.
NOTE: Other linear solvers might be more efficient (see Ipopt documentation).

Number of nonzeros in equality constraint Jacobian...:    74270
Number of nonzeros in inequality constraint Jacobian.:    22796
Number of nonzeros in Lagrangian Hessian.............:    14700

Total number of variables............................:    16356
                     variables with only lower bounds:        0
                variables with lower and upper bounds:        0
                     variables with only upper bounds:        0
Total number of equality constraints.................:    14700
Total number of inequality constraints...............:    19576
        inequality constraints with only lower bounds:     1610
   inequality constraints with lower and upper bounds:    16356
        inequality constraints with only upper bounds:     1610

iter    objective    inf_pr   inf_du lg(mu)  ||d||  lg(rg) alpha_du alpha_pr  ls
   0 2.4130003e-001 6.23e-001 1.68e+000  -1.0 0.00e+000    -  0.00e+000 0.00e+000   0
   1 1.0389213e+001 1.38e+001 9.06e+000  -1.0 9.30e+000    -  1.08e-001 1.00e+000f  1
   2 9.1364882e+000 1.19e+000 5.23e+001  -1.0 5.61e+000    -  3.22e-001 1.00e+000f  1
   3 8.9167973e+000 5.93e-001 1.51e+002  -1.0 1.29e-001   2.0 9.91e-001 1.00e+000h  1
   4 8.8959897e+000 4.00e-003 3.90e+001  -1.0 1.41e-002   2.4 1.00e+000 1.00e+000h  1
   5 8.8889927e+000 9.58e-005 5.99e-001  -1.0 6.74e-003   1.9 1.00e+000 1.00e+000f  1
   6 8.8735488e+000 5.87e-004 2.33e-001  -1.7 7.86e-003   1.5 1.00e+000 1.00e+000f  1
   7 8.8322457e+000 1.70e-003 2.36e-001  -1.7 2.39e-002   1.0 1.00e+000 1.00e+000f  1
   8 8.7172462e+000 2.47e-002 2.44e-001  -1.7 7.30e-002   0.5 1.00e+000 1.00e+000f  1
   9 8.1118206e+000 5.84e+000 4.41e+000  -1.7 2.48e+000   0.0 3.75e-001 4.25e-001f  1
iter    objective    inf_pr   inf_du lg(mu)  ||d||  lg(rg) alpha_du alpha_pr  ls
  10 7.6666341e+000 8.60e-001 6.64e+000  -1.7 9.55e-001  -0.4 1.44e-001 1.00e+000f  1
  11 6.9132533e+000 7.56e-001 9.41e+000  -1.7 1.09e+000  -0.9 8.51e-001 1.00e+000f  1
  12 7.2365155e+000 1.84e+000 2.11e+002  -1.7 1.36e+000   0.4 3.47e-001 1.00e+000h  1
  13 6.8145009e+000 3.66e+000 1.47e+002  -1.7 4.32e+000  -0.1 3.15e-001 7.06e-001f  1
  14 6.6850657e+000 1.75e+000 1.56e+003  -1.7 2.99e+000   1.3 1.26e-001 5.56e-001h  1
  15 6.6858952e+000 1.73e+000 1.55e+003  -1.7 3.09e+000   2.6 6.30e-001 8.77e-003h  1
  16 6.6854915e+000 1.72e+000 1.54e+003  -1.7 4.04e+000   3.0 7.29e-002 4.29e-003h  1
  17 6.6512502e+000 8.97e-001 7.72e+003  -1.7 3.96e+000   2.5 4.29e-001 4.80e-001f  1
  18 6.6519005e+000 8.44e-001 7.40e+003  -1.7 2.40e+001   3.0 2.04e-001 4.12e-002H  1
  19 6.6518954e+000 8.44e-001 7.40e+003  -1.7 1.85e+000   3.4 3.99e-002 9.33e-005h  1
iter    objective    inf_pr   inf_du lg(mu)  ||d||  lg(rg) alpha_du alpha_pr  ls
  20 6.6513938e+000 8.22e-001 7.21e+003  -1.7 5.90e+000   2.9 2.43e-001 2.47e-002H  1
  21 6.6513246e+000 8.22e-001 7.21e+003  -1.7 2.84e+000   3.3 6.94e-003 5.69e-004h  1
  22 6.6852659e+000 1.11e+000 2.11e+005  -1.7 5.48e+000   2.9 4.93e-002 8.60e-001F  1
  23 6.6853133e+000 1.10e+000 2.11e+005  -1.7 3.49e+000   4.2 5.31e-001 1.01e-003h  1
  24 6.6494534e+000 7.74e-001 6.49e+004  -1.7 3.65e+000   3.7 4.91e-002 3.33e-001h  1
  25 6.6495958e+000 7.71e-001 6.46e+004  -1.7 2.43e+000   3.2 8.27e-001 4.05e-003h  1
  26 6.6495772e+000 7.71e-001 6.46e+004  -1.7 2.02e+000   3.7 4.19e-001 2.24e-004h  1
  27 6.6286298e+000 6.02e-001 5.63e+004  -1.7 2.48e+000   3.2 2.42e-001 2.41e-001h  2
  28 6.6199884e+000 5.66e-001 6.42e+004  -1.7 1.83e+000   4.5 2.37e-002 6.08e-002h  1
  29 6.5913541e+000 3.80e-001 7.92e+005  -1.7 1.17e+000   4.9 2.07e-002 3.35e-001f  1
iter    objective    inf_pr   inf_du lg(mu)  ||d||  lg(rg) alpha_du alpha_pr  ls
  30 6.6709307e+000 2.64e-001 7.29e+006  -1.7 7.33e-001   4.5 1.89e-001 1.00e+000f  1
  31 6.6598076e+000 3.21e-002 2.27e+006  -1.7 1.45e-001   5.8 8.28e-003 1.00e+000f  1
  32 6.6583256e+000 2.63e-002 1.86e+006  -1.7 3.69e-002   5.3 1.53e-002 1.83e-001h  1
  33 6.6517158e+000 1.17e-003 7.09e+004  -1.7 2.95e-002   4.8 1.00e+000 1.00e+000f  1
  34 6.6515005e+000 3.40e-006 5.76e+002  -1.7 1.65e-003   4.4 9.99e-001 1.00e+000h  1
  35 6.6514757e+000 1.51e-008 1.21e+001  -1.7 1.55e-003   3.9 1.00e+000 1.00e+000f  1
  36 6.6514281e+000 7.32e-009 1.99e+000  -1.7 7.66e-004   3.4 1.00e+000 1.00e+000f  1
  37 6.6512808e+000 7.64e-008 2.64e+000  -1.7 3.06e-003   2.9 1.00e+000 1.00e+000f  1
  38 6.6508786e+000 4.56e-007 8.46e-001  -1.7 2.94e-003   2.5 1.00e+000 1.00e+000f  1
  39 6.6496936e+000 3.66e-006 7.14e-001  -1.7 7.44e-003   2.0 1.00e+000 1.00e+000f  1
iter    objective    inf_pr   inf_du lg(mu)  ||d||  lg(rg) alpha_du alpha_pr  ls
  40 6.6463046e+000 2.43e-005 3.20e-001  -1.7 1.00e-002   1.5 1.00e+000 1.00e+000f  1
  41 6.6366667e+000 1.41e-004 2.17e-001  -1.7 2.03e-002   1.0 1.00e+000 1.00e+000f  1
  42 6.6096282e+000 7.09e-004 1.12e-001  -1.7 3.16e-002   0.6 1.00e+000 1.00e+000f  1
  43 6.5234801e+000 2.33e-003 8.62e-002  -2.5 7.27e-002   0.1 8.94e-001 1.00e+000f  1
  44 6.2795134e+000 1.52e-002 7.88e-002  -2.5 2.00e-001  -0.4 1.00e+000 1.00e+000f  1
  45 5.6841686e+000 8.31e-002 7.49e-002  -2.5 4.72e-001  -0.9 7.28e-001 1.00e+000f  1
  46 4.4948102e+000 1.50e+000 7.63e-001  -2.5 8.40e-001  -1.4 1.00e+000 1.00e+000f  1
  47 4.1732218e+000 3.87e-001 2.34e-001  -2.5 2.00e-001  -0.9 1.00e+000 1.00e+000h  1
  48 3.4427034e+000 2.73e-002 1.16e-001  -2.5 4.96e-001  -1.4 1.00e+000 1.00e+000f  1
  49 2.3462259e+000 6.37e-001 3.16e-001  -2.5 1.09e+000  -1.9 1.00e+000 1.00e+000f  1
iter    objective    inf_pr   inf_du lg(mu)  ||d||  lg(rg) alpha_du alpha_pr  ls
  50 1.5403918e+000 5.12e-001 3.92e-001  -2.5 2.10e+001    -  2.09e-001 2.95e-001f  1
  51 1.0563452e+000 1.64e-001 2.32e-001  -2.5 1.16e+000  -2.4 1.00e+000 1.00e+000f  1
  52 9.6993209e-001 2.99e-002 3.97e-002  -2.5 3.66e-001  -1.9 1.00e+000 1.00e+000f  1
  53 9.4460809e-001 6.71e-004 3.95e-003  -2.5 1.28e-001  -1.5 1.00e+000 1.00e+000h  1
  54 7.8714138e-001 1.01e-002 5.50e-003  -3.8 3.90e-001  -2.0 9.96e-001 1.00e+000f  1
  55 6.5450442e-001 1.46e-001 2.22e-002  -3.8 9.24e-001  -2.5 1.00e+000 6.92e-001f  1
  56 5.1767382e-001 5.41e-002 1.83e-002  -3.8 9.35e-001  -2.9 1.00e+000 1.00e+000f  1
  57 4.8528770e-001 3.78e-002 1.10e-002  -3.8 1.00e+000  -3.4 1.00e+000 1.00e+000h  1
  58 4.9287351e-001 1.77e-001 3.07e-003  -3.8 1.46e+000  -3.9 1.00e+000 1.00e+000h  1
  59 4.9812013e-001 1.69e-001 2.66e-003  -3.8 7.02e-001  -3.5 1.00e+000 1.00e+000h  1
iter    objective    inf_pr   inf_du lg(mu)  ||d||  lg(rg) alpha_du alpha_pr  ls
  60 4.9991378e-001 9.38e-002 8.95e-003  -3.8 3.10e-001  -3.0 1.00e+000 1.00e+000h  1
  61 5.0062713e-001 1.58e-002 3.51e-003  -3.8 1.22e-001  -2.6 1.00e+000 1.00e+000h  1
  62 5.0270188e-001 4.81e-003 1.03e-003  -3.8 1.56e-001  -3.1 1.00e+000 1.00e+000h  1
  63 4.9013412e-001 2.98e-002 9.66e-004  -5.7 6.84e-001  -3.6 9.27e-001 1.00e+000h  1
  64 4.5802312e-001 1.90e-001 3.01e-004  -5.7 1.92e+000  -4.1 1.00e+000 1.00e+000h  1
  65 4.2275883e-001 2.77e-001 6.88e-004  -5.7 4.14e+000  -4.5 1.00e+000 4.68e-001h  1
  66 3.9633941e-001 2.77e-001 2.83e-003  -5.7 6.68e+000  -5.0 1.00e+000 1.86e-001h  1
  67 3.5960751e-001 2.06e-001 2.45e-003  -5.7 1.17e+001  -5.5 5.69e-001 1.81e-001h  1
  68 3.4069386e-001 1.97e-001 2.38e-003  -5.7 5.77e+000  -5.1 7.09e-001 2.06e-001h  1
  69 3.1754753e-001 1.65e-001 2.09e-003  -5.7 2.23e+001    -  9.87e-002 1.18e-001h  1
iter    objective    inf_pr   inf_du lg(mu)  ||d||  lg(rg) alpha_du alpha_pr  ls
  70 2.9988068e-001 1.87e-001 2.19e-003  -5.7 1.87e+001    -  5.79e-001 1.20e-001h  1
  71 2.8224482e-001 2.17e-001 2.17e-003  -5.7 2.16e+001    -  5.13e-001 1.82e-001h  1
  72 2.7273077e-001 2.01e-001 2.99e-003  -5.7 1.03e+001    -  9.78e-001 1.61e-001h  1
  73 2.5637275e-001 1.56e-001 1.56e-003  -5.7 5.11e+000    -  1.00e+000 4.78e-001h  1
  74 2.4862994e-001 5.21e-002 4.39e-004  -5.7 1.91e+000    -  1.00e+000 6.85e-001h  1
  75 2.4615125e-001 6.79e-003 2.27e-004  -5.7 9.56e-001    -  1.00e+000 1.00e+000h  1
  76 2.4616988e-001 1.35e-005 6.60e-007  -5.7 8.85e-002    -  1.00e+000 1.00e+000h  1
  77 2.4275610e-001 1.10e-002 6.35e-004  -7.0 1.50e+000    -  9.05e-001 6.26e-001h  1
  78 2.4141293e-001 6.83e-003 1.08e-003  -7.0 4.29e-001  -5.5 1.00e+000 6.41e-001h  1
  79 2.4057591e-001 5.07e-003 6.41e-004  -7.0 5.75e-001  -6.0 1.00e+000 7.58e-001h  1
iter    objective    inf_pr   inf_du lg(mu)  ||d||  lg(rg) alpha_du alpha_pr  ls
  80 2.4035427e-001 1.49e-003 3.14e-004  -7.0 7.79e-001  -6.5 1.00e+000 8.40e-001f  1
  81 2.4031921e-001 8.41e-005 1.90e-007  -7.0 2.19e-001  -6.1 1.00e+000 1.00e+000f  1
  82 2.4031662e-001 4.05e-004 1.07e-006  -7.0 3.02e-001  -6.5 1.00e+000 1.00e+000h  1
  83 2.4031613e-001 7.24e-005 1.99e-007  -7.0 1.27e-001  -6.1 1.00e+000 1.00e+000h  1
  84 2.4031556e-001 2.98e-003 1.43e-005  -7.0 9.42e-001  -6.6 1.00e+000 1.00e+000h  1
  85 2.4031298e-001 3.09e-004 1.35e-006  -7.0 2.68e-001  -6.2 1.00e+000 1.00e+000h  1
  86 2.4031148e-001 2.70e-004 2.78e-006  -7.0 6.01e-001  -6.6 1.00e+000 7.94e-001H  1
  87 2.4031140e-001 4.70e-004 1.99e-006  -7.0 4.23e-001  -7.1 1.00e+000 1.00e+000f  1
  88 2.4031042e-001 3.76e-005 7.65e-006  -7.0 1.07e+000  -7.6 1.00e+000 1.00e+000H  1
  89 2.4031040e-001 4.29e-005 7.46e-006  -7.0 5.18e+000    -  2.61e-001 2.42e-002h  4
iter    objective    inf_pr   inf_du lg(mu)  ||d||  lg(rg) alpha_du alpha_pr  ls
  90 2.4031037e-001 2.19e-006 1.67e-006  -7.0 4.47e-001    -  1.00e+000 1.00e+000H  1
  91 2.4031036e-001 7.50e-009 7.35e-008  -7.0 8.85e-002    -  1.00e+000 1.00e+000H  1

Number of Iterations....: 91

                                   (scaled)                 (unscaled)
Objective...............:  2.4031035503786188e-001   2.4031035503786188e-001
Dual infeasibility......:  7.3536988319633416e-008   7.3536988319633416e-008
Constraint violation....:  8.0471522530894122e-010   7.5035515578747436e-009
Complementarity.........:  9.2427895626694414e-008   9.2427895626694414e-008
Overall NLP error.......:  9.2427895626694414e-008   9.2427895626694414e-008


Number of objective function evaluations             = 108
Number of objective gradient evaluations             = 92
Number of equality constraint evaluations            = 108
Number of inequality constraint evaluations          = 108
Number of equality constraint Jacobian evaluations   = 92
Number of inequality constraint Jacobian evaluations = 92
Number of Lagrangian Hessian evaluations             = 91
Total CPU secs in IPOPT (w/o function evaluations)   =     15.369
Total CPU secs in NLP function evaluations           =      2.142

EXIT: Optimal Solution Found.
               t_proc [s]   t_wall [s]    n_eval
       nlp_f        0.043        0.043       108
       nlp_g        0.183        0.182       108
  nlp_grad_f        0.083       0.0831        93
  nlp_hess_l        0.794        0.794        91
   nlp_jac_g         1.02         1.02        93
      solver         17.5         17.5         1
